; PUSH cw_3 MLOAD DUP2 SWAP1 => DUP1 PUSH cw_3 MLOAD
(set-option :produce-proofs true)
; 
(set-info :status unknown)
(declare-fun storage_t ((_ BitVec 256) (_ BitVec 256) (_ BitVec 256) Int (_ BitVec 256)) (_ BitVec 256))
(declare-fun w_3 () (_ BitVec 256))
(declare-fun storage_s ((_ BitVec 256) (_ BitVec 256) (_ BitVec 256) Int (_ BitVec 256)) (_ BitVec 256))
(declare-fun exc_halt_t (Int) Bool)
(declare-fun exc_halt_s (Int) Bool)
(declare-fun sc_t (Int) (_ BitVec 6))
(declare-fun stack_t ((_ BitVec 256) (_ BitVec 256) (_ BitVec 256) Int (_ BitVec 6)) (_ BitVec 256))
(declare-fun stack_s ((_ BitVec 256) (_ BitVec 256) (_ BitVec 256) Int (_ BitVec 6)) (_ BitVec 256))
(declare-fun sc_s (Int) (_ BitVec 6))
(declare-fun used_gas_t ((_ BitVec 256) (_ BitVec 256) (_ BitVec 256) Int) Int)
(declare-fun used_gas_s ((_ BitVec 256) (_ BitVec 256) (_ BitVec 256) Int) Int)
(declare-fun f_MLOAD ((_ BitVec 256) (_ BitVec 256) (_ BitVec 256) (_ BitVec 256)) (_ BitVec 256))
(assert
 (exists ((x_0 (_ BitVec 256)) (x_MLOAD_0 (_ BitVec 256)) )(let (($x1207 (forall ((w (_ BitVec 256)) )(let ((?x1315 (storage_t x_0 w_3 x_MLOAD_0 3 w)))
 (let ((?x786 (storage_s x_0 w_3 x_MLOAD_0 4 w)))
 (= ?x786 ?x1315))))
 ))
 (let (($x9712 (exc_halt_t 3)))
 (let (($x9175 (exc_halt_s 4)))
 (let (($x3921 (= $x9175 $x9712)))
 (let (($x7581 (forall ((n (_ BitVec 6)) )(let ((?x6754 (sc_t 3)))
 (let (($x5690 (bvsle ?x6754 n)))
 (let ((?x643 (stack_t x_0 w_3 x_MLOAD_0 3 n)))
 (let ((?x5609 (stack_s x_0 w_3 x_MLOAD_0 4 n)))
 (let (($x2516 (= ?x5609 ?x643)))
 (or $x2516 $x5690)))))))
 ))
 (let ((?x6754 (sc_t 3)))
 (let ((?x9433 (sc_s 4)))
 (let (($x10695 (= ?x9433 ?x6754)))
 (let ((?x9200 (used_gas_t x_0 w_3 x_MLOAD_0 0)))
 (let ((?x11456 (used_gas_s x_0 w_3 x_MLOAD_0 0)))
 (let (($x4002 (= ?x11456 ?x9200)))
 (let (($x9885 (forall ((w (_ BitVec 256)) )(let ((?x4644 (storage_t x_0 w_3 x_MLOAD_0 0 w)))
 (let ((?x4341 (storage_s x_0 w_3 x_MLOAD_0 0 w)))
 (= ?x4341 ?x4644))))
 ))
 (let (($x56 (exc_halt_t 0)))
 (let (($x57 (exc_halt_s 0)))
 (let (($x58 (= $x57 $x56)))
 (let (($x3158 (forall ((n (_ BitVec 6)) )(let ((?x63 (sc_t 0)))
 (let (($x11416 (bvsle ?x63 n)))
 (let ((?x6625 (stack_t x_0 w_3 x_MLOAD_0 0 n)))
 (let ((?x7962 (stack_s x_0 w_3 x_MLOAD_0 0 n)))
 (let (($x3486 (= ?x7962 ?x6625)))
 (or $x3486 $x11416)))))))
 ))
 (let ((?x63 (sc_t 0)))
 (let ((?x72 (sc_s 0)))
 (let (($x73 (= ?x72 ?x63)))
 (let (($x914 (= $x9712 (or (exc_halt_t 2) (not (bvsle (_ bv0 6) (bvadd (_ bv63 6) (sc_t 2))))))))
 (let (($x7083 (forall ((w (_ BitVec 256)) )(let ((?x7722 (storage_t x_0 w_3 x_MLOAD_0 2 w)))
 (let ((?x1315 (storage_t x_0 w_3 x_MLOAD_0 3 w)))
 (= ?x1315 ?x7722))))
 ))
 (let (($x8193 (forall ((n (_ BitVec 6)) )(let ((?x10194 (stack_t x_0 w_3 x_MLOAD_0 2 n)))
 (let ((?x643 (stack_t x_0 w_3 x_MLOAD_0 3 n)))
 (let ((?x11248 (sc_t 2)))
 (let ((?x4957 (bvadd (_ bv63 6) ?x11248)))
 (let (($x1369 (bvsle ?x4957 n)))
 (or $x1369 (= ?x643 ?x10194))))))))
 ))
 (let ((?x11248 (sc_t 2)))
 (let (($x7578 (= ?x6754 ?x11248)))
 (let (($x4713 (= (used_gas_t x_0 w_3 x_MLOAD_0 3) (+ 3 (used_gas_t x_0 w_3 x_MLOAD_0 2)))))
 (let ((?x2291 (f_MLOAD x_0 w_3 x_MLOAD_0 (stack_t x_0 w_3 x_MLOAD_0 2 (bvadd (_ bv63 6) ?x11248)))))
 (let (($x2872 (not (= ((_ extract 6 6) (bvadd (_ bv1 7) (concat (_ bv0 1) (sc_t 1)))) (_ bv0 1)))))
 (let (($x4852 (exc_halt_t 1)))
 (let (($x5995 (exc_halt_t 2)))
 (let (($x2376 (forall ((w (_ BitVec 256)) )(let ((?x2651 (storage_t x_0 w_3 x_MLOAD_0 1 w)))
 (let ((?x7722 (storage_t x_0 w_3 x_MLOAD_0 2 w)))
 (= ?x7722 ?x2651))))
 ))
 (let (($x7312 (forall ((n (_ BitVec 6)) )(let ((?x3366 (stack_t x_0 w_3 x_MLOAD_0 1 n)))
 (let ((?x10194 (stack_t x_0 w_3 x_MLOAD_0 2 n)))
 (or (bvsle (sc_t 1) n) (= ?x10194 ?x3366)))))
 ))
 (let (($x2990 (= ?x11248 (bvadd (_ bv1 6) (sc_t 1)))))
 (let ((?x6380 (used_gas_t x_0 w_3 x_MLOAD_0 2)))
 (let (($x790 (not (= ((_ extract 6 6) (bvadd (_ bv1 7) (concat (_ bv0 1) ?x63))) (_ bv0 1)))))
 (let (($x10637 (= $x4852 (or $x56 $x790 (not (bvsle (_ bv0 6) (bvadd (_ bv63 6) ?x63)))))))
 (let (($x11706 (forall ((w (_ BitVec 256)) )(let ((?x4644 (storage_t x_0 w_3 x_MLOAD_0 0 w)))
 (let ((?x2651 (storage_t x_0 w_3 x_MLOAD_0 1 w)))
 (= ?x2651 ?x4644))))
 ))
 (let (($x8088 (forall ((n (_ BitVec 6)) )(let ((?x63 (sc_t 0)))
 (let ((?x1830 (bvadd (_ bv63 6) ?x63)))
 (let (($x4352 (bvsle ?x1830 n)))
 (let ((?x6625 (stack_t x_0 w_3 x_MLOAD_0 0 n)))
 (let ((?x3366 (stack_t x_0 w_3 x_MLOAD_0 1 n)))
 (or (= ?x3366 ?x6625) $x4352)))))))
 ))
 (let ((?x9666 (sc_t 1)))
 (let (($x6587 (= ?x9666 (bvadd (_ bv1 6) ?x63))))
 (let ((?x1830 (bvadd (_ bv63 6) ?x63)))
 (let ((?x799 (stack_t x_0 w_3 x_MLOAD_0 0 ?x1830)))
 (let (($x5977 (= $x9175 (or (exc_halt_s 3) (not (bvsle (_ bv0 6) (bvadd (_ bv62 6) (sc_s 3))))))))
 (let (($x6176 (forall ((w (_ BitVec 256)) )(let ((?x5387 (storage_s x_0 w_3 x_MLOAD_0 3 w)))
 (let ((?x786 (storage_s x_0 w_3 x_MLOAD_0 4 w)))
 (= ?x786 ?x5387))))
 ))
 (let (($x2280 (forall ((n (_ BitVec 6)) )(let ((?x2153 (stack_s x_0 w_3 x_MLOAD_0 3 n)))
 (let ((?x5609 (stack_s x_0 w_3 x_MLOAD_0 4 n)))
 (let ((?x3851 (sc_s 3)))
 (let ((?x4699 (bvadd (_ bv62 6) ?x3851)))
 (let (($x8206 (bvsle ?x4699 n)))
 (or $x8206 (= ?x5609 ?x2153))))))))
 ))
 (let ((?x3851 (sc_s 3)))
 (let (($x3035 (= ?x9433 ?x3851)))
 (let (($x248 (= (used_gas_s x_0 w_3 x_MLOAD_0 4) (+ 3 (used_gas_s x_0 w_3 x_MLOAD_0 3)))))
 (let ((?x11414 (bvadd (_ bv63 6) ?x3851)))
 (let ((?x5419 (stack_s x_0 w_3 x_MLOAD_0 3 ?x11414)))
 (let (($x4144 (= (stack_s x_0 w_3 x_MLOAD_0 4 (bvadd (_ bv63 6) ?x9433)) (stack_s x_0 w_3 x_MLOAD_0 3 (bvadd (_ bv62 6) ?x3851)))))
 (let (($x10299 (not (= ((_ extract 6 6) (bvadd (_ bv1 7) (concat (_ bv0 1) (sc_s 2)))) (_ bv0 1)))))
 (let (($x10052 (exc_halt_s 2)))
 (let (($x4278 (not (bvsle (_ bv0 6) (bvadd (_ bv62 6) (sc_s 2))))))
 (let (($x8103 (exc_halt_s 3)))
 (let (($x10221 (forall ((w (_ BitVec 256)) )(let ((?x1050 (storage_s x_0 w_3 x_MLOAD_0 2 w)))
 (let ((?x5387 (storage_s x_0 w_3 x_MLOAD_0 3 w)))
 (= ?x5387 ?x1050))))
 ))
 (let (($x11148 (forall ((n (_ BitVec 6)) )(let ((?x9843 (stack_s x_0 w_3 x_MLOAD_0 2 n)))
 (let ((?x2153 (stack_s x_0 w_3 x_MLOAD_0 3 n)))
 (let ((?x2272 (sc_s 2)))
 (let ((?x1467 (bvadd (_ bv62 6) ?x2272)))
 (let (($x2218 (bvsle ?x1467 n)))
 (or $x2218 (= ?x2153 ?x9843))))))))
 ))
 (let (($x9622 (= ?x3851 (bvadd (_ bv1 6) (sc_s 2)))))
 (let ((?x6401 (used_gas_s x_0 w_3 x_MLOAD_0 3)))
 (let ((?x2272 (sc_s 2)))
 (let ((?x7199 (bvadd (_ bv63 6) ?x2272)))
 (let ((?x7850 (stack_s x_0 w_3 x_MLOAD_0 2 ?x7199)))
 (let ((?x1467 (bvadd (_ bv62 6) ?x2272)))
 (let ((?x9370 (stack_s x_0 w_3 x_MLOAD_0 2 ?x1467)))
 (let (($x5415 (= $x10052 (or (exc_halt_s 1) (not (bvsle (_ bv0 6) (bvadd (_ bv63 6) (sc_s 1))))))))
 (let (($x9782 (forall ((w (_ BitVec 256)) )(let ((?x10216 (storage_s x_0 w_3 x_MLOAD_0 1 w)))
 (let ((?x1050 (storage_s x_0 w_3 x_MLOAD_0 2 w)))
 (= ?x1050 ?x10216))))
 ))
 (let (($x3282 (forall ((n (_ BitVec 6)) )(let ((?x4816 (stack_s x_0 w_3 x_MLOAD_0 1 n)))
 (let ((?x9843 (stack_s x_0 w_3 x_MLOAD_0 2 n)))
 (let ((?x154 (sc_s 1)))
 (let ((?x5493 (bvadd (_ bv63 6) ?x154)))
 (let (($x3187 (bvsle ?x5493 n)))
 (or $x3187 (= ?x9843 ?x4816))))))))
 ))
 (let ((?x154 (sc_s 1)))
 (let (($x11645 (= ?x2272 ?x154)))
 (let ((?x4459 (used_gas_s x_0 w_3 x_MLOAD_0 2)))
 (let ((?x5315 (f_MLOAD x_0 w_3 x_MLOAD_0 (stack_s x_0 w_3 x_MLOAD_0 1 (bvadd (_ bv63 6) ?x154)))))
 (let (($x8780 (exc_halt_s 1)))
 (let (($x1756 (= $x8780 (or $x57 (not (= ((_ extract 6 6) (bvadd (_ bv1 7) (concat (_ bv0 1) ?x72))) (_ bv0 1)))))))
 (let (($x4840 (forall ((w (_ BitVec 256)) )(let ((?x4341 (storage_s x_0 w_3 x_MLOAD_0 0 w)))
 (let ((?x10216 (storage_s x_0 w_3 x_MLOAD_0 1 w)))
 (= ?x10216 ?x4341))))
 ))
 (let (($x8861 (forall ((n (_ BitVec 6)) )(let ((?x7962 (stack_s x_0 w_3 x_MLOAD_0 0 n)))
 (let ((?x4816 (stack_s x_0 w_3 x_MLOAD_0 1 n)))
 (let ((?x72 (sc_s 0)))
 (let (($x2856 (bvsle ?x72 n)))
 (or $x2856 (= ?x4816 ?x7962)))))))
 ))
 (let (($x9590 (= ?x154 (bvadd (_ bv1 6) ?x72))))
 (let (($x10575 (forall ((w0 (_ BitVec 256)) )(let ((?x146 (ite (= (stack_s x_0 w_3 x_MLOAD_0 1 (bvadd (_ bv63 6) (sc_s 1))) w0) x_MLOAD_0 (_ bv0 256))))
 (let ((?x4039 (f_MLOAD x_0 w_3 x_MLOAD_0 w0)))
 (= ?x4039 ?x146))))
 ))
 (let (($x5314 (forall ((w (_ BitVec 256)) )(let ((?x4341 (storage_s x_0 w_3 x_MLOAD_0 0 w)))
 (= ?x4341 (_ bv0 256))))
 ))
 (let (($x6736 (= ?x11456 0)))
 (let (($x5393 (not $x57)))
 (let (($x255 (= (stack_s x_0 w_3 x_MLOAD_0 0 (_ bv0 6)) x_0)))
 (let (($x7461 (= ?x72 (_ bv1 6))))
 (and $x7461 $x255 $x5393 $x6736 $x5314 $x10575 (= (stack_s x_0 w_3 x_MLOAD_0 1 ?x72) w_3) (= (used_gas_s x_0 w_3 x_MLOAD_0 1) (+ 3 ?x11456)) $x9590 $x8861 $x4840 $x1756 (= ?x7850 ?x5315) (= ?x4459 (+ 3 (used_gas_s x_0 w_3 x_MLOAD_0 1))) $x11645 $x3282 $x9782 $x5415 (= ?x5419 ?x9370) (= (stack_s x_0 w_3 x_MLOAD_0 3 ?x1467) ?x9370) (= (stack_s x_0 w_3 x_MLOAD_0 3 ?x7199) ?x7850) (= ?x6401 (+ 3 ?x4459)) $x9622 $x11148 $x10221 (= $x8103 (or $x4278 $x10052 $x10299)) $x4144 (= (stack_s x_0 w_3 x_MLOAD_0 4 (bvadd (_ bv62 6) ?x9433)) ?x5419) $x248 $x3035 $x2280 $x6176 $x5977 (= (stack_t x_0 w_3 x_MLOAD_0 1 (bvadd (_ bv63 6) ?x9666)) ?x799) (= (stack_t x_0 w_3 x_MLOAD_0 1 ?x1830) ?x799) (= (used_gas_t x_0 w_3 x_MLOAD_0 1) (+ 3 ?x9200)) $x6587 $x8088 $x11706 $x10637 (= (stack_t x_0 w_3 x_MLOAD_0 2 ?x9666) w_3) (= ?x6380 (+ 3 (used_gas_t x_0 w_3 x_MLOAD_0 1))) $x2990 $x7312 $x2376 (= $x5995 (or $x4852 $x2872)) (= (stack_t x_0 w_3 x_MLOAD_0 3 (bvadd (_ bv63 6) ?x6754)) ?x2291) $x4713 $x7578 $x8193 $x7083 $x914 $x73 $x3158 $x58 $x9885 $x4002 (not (and $x10695 $x7581 $x3921 $x1207)))))))))))))))))))))))))))))))))))))))))))))))))))))))))))))))))))))))))))))))))))))
 )
(check-sat)
(get-proof)
